language ESSENCE' 1.0
$ minion Nodes: 1
$ minion TotalTime: 0.000363
$ Savile Row TotalTime: 0.131
letting pain_tuple1_tuple2_tuple2 be [8, 9;int(1,2)]
letting pain_tuple1_tuple2_tuple1 be [4, 5;int(1,2)]
letting pain_tuple1_tuple1 be [1, 2;int(1,2)]
